10
11
12
22
31
112
112
112
119
122
128
181
181
182
191
198
201
203
220
231
311
391
801
812
819
918
918
1012
1021
1022
1032
1092
1119
1120
1121
1129
1139
1191
1192
1193
1198
1212
1213
1213
1231
1281
1308
1311
1312
1321
1809
1829
1829
1912
1918
1932
2011
2021
2023
2028
2101
2112
2139
2139
2209
2209
2281
2309
2310
2319
2321
2381
2801
2903
2911
2932
3011
3012
3111
3111
3112
3121
3289
3902
3910
8101
8110
8113
8129
8191
8210
8211
8319
8392
9108
9130
9138
9218
9312
9821
